100
128
16
43
20
52
58
3
22
49
1
15
38
49
26
16
7
7
33
64
49
34
33
8
44
41
23
52
54
1
43
10
25
54
62
10
16
29
28
3
16
28
13
15
12
17
17
13
8
38
12
10
25
13
44
8
56
13
22
54
10
3
36
31
15
9
1
13
2
27
12
10
12
4
3
24
49
11
38
11
46
46
13
4
52
44
18
52
18
32
27
48
42
63
22
10
38
48
32
32
64
32